# Data generated: 02-Jan-2012 11:54:06

data; 

param N := 175.000000000000;
param M :=   5.000000000000;
param nBus :=  50.000000000000;
param nT := 120.000000000000;
param beta :=   0.975000000000;
param RCsol :=  11.725700000000;
param thetaCostsol :=   2.456900000000;
param thetaProbssol := 
	1	  0.093700000000
	2	  0.447500000000
	3	  0.445900000000
	4	  0.012700000000
	5	  0.000200000000
;
